(set-info :source |printed by MathSAT|)
(declare-fun A () Int)
(declare-fun .x.71 () Int)
(declare-fun R () (Array Int Int))
(declare-fun .x.72 () (Array Int Int))
(declare-fun C () (Array Int Int))
(declare-fun .x.73 () (Array Int Int))
(declare-fun D () (Array Int (Array Int Int)))
(declare-fun .x.74 () (Array Int (Array Int Int)))
(declare-fun E () (Array Int (Array Int Int)))
(declare-fun .x.75 () (Array Int (Array Int Int)))
(declare-fun S () Int)
(declare-fun .x.76 () Int)
(declare-fun G () Int)
(declare-fun .x.77 () Int)
(declare-fun H () (Array Int Int))
(declare-fun .x.78 () (Array Int Int))
(declare-fun I () (Array Int Int))
(declare-fun .x.79 () (Array Int Int))
(declare-fun T () Int)
(declare-fun .x.80 () Int)
(declare-fun K () Int)
(declare-fun .x.81 () Int)
(declare-fun L () Int)
(declare-fun .x.82 () Int)
(declare-fun M () Int)
(declare-fun .x.83 () Int)
(declare-fun N () Int)
(declare-fun .x.84 () Int)
(declare-fun O () Int)
(declare-fun .x.85 () Int)
(declare-fun P () Int)
(declare-fun .x.86 () Int)
(declare-fun Q () Bool)
(declare-fun Q_4 () Bool)
(declare-fun .loc.3 () Bool)
(declare-fun .loc.5 () Bool)
(declare-fun .loc.4 () Bool)
(declare-fun .loc.6 () Bool)
(declare-fun R_0 () (Array Int Int))
(define-fun .def_8 () Int (! A :next |.x.71|))
(define-fun .def_10 () (Array Int Int) (! R :next |.x.72|))
(define-fun .def_12 () (Array Int Int) (! C :next |.x.73|))
(define-fun .def_14 () (Array Int (Array Int Int)) (! D :next |.x.74|))
(define-fun .def_16 () (Array Int (Array Int Int)) (! E :next |.x.75|))
(define-fun .def_18 () Int (! S :next |.x.76|))
(define-fun .def_20 () Int (! G :next |.x.77|))
(define-fun .def_22 () (Array Int Int) (! H :next |.x.78|))
(define-fun .def_24 () (Array Int Int) (! I :next |.x.79|))
(define-fun .def_26 () Int (! T :next |.x.80|))
(define-fun .def_28 () Int (! K :next |.x.81|))
(define-fun .def_30 () Int (! L :next |.x.82|))
(define-fun .def_32 () Int (! M :next |.x.83|))
(define-fun .def_34 () Int (! N :next |.x.84|))
(define-fun .def_36 () Int (! O :next |.x.85|))
(define-fun .def_38 () Int (! P :next |.x.86|))
(define-fun .def_40 () Bool (! Q :next |Q_4|))
(define-fun .def_42 () Bool (! .loc.3 :next |.loc.5|))
(define-fun .def_44 () Bool (! .loc.4 :next |.loc.6|))
(define-fun .def_52 () (Array Int Int) (! R_0 :next |.xtv.1|))
(define-fun .def_160 () Bool (not .def_44))
(define-fun .def_57 () Bool (not .def_42))
(define-fun .def_174 () Bool (and .def_57 .def_160))
(define-fun .def_168 () Bool (= .def_14 .def_16))
(define-fun .def_167 () Bool (not .def_40))
(define-fun .def_169 () Bool (and .def_167 .def_168))
(define-fun .def_166 () Bool (= .def_18 .def_20))
(define-fun .def_170 () Bool (and .def_166 .def_169))
(define-fun .def_165 () Bool (= .def_26 .def_28))
(define-fun .def_171 () Bool (and .def_165 .def_170))
(define-fun .def_164 () Bool (= .def_22 .def_24))
(define-fun .def_172 () Bool (and .def_164 .def_171))
(define-fun .def_163 () Bool (= .def_10 .def_12))
(define-fun .def_173 () Bool (and .def_163 .def_172))
(define-fun .def_175 () Bool (! (and .def_173 .def_174) :init true))
(define-fun .def_158 () Bool (= .def_28 .x.81))
(define-fun .def_156 () Bool (= .def_24 .x.79))
(define-fun .def_154 () Bool (= .def_20 .x.77))
(define-fun .def_152 () Bool (= .def_16 .x.75))
(define-fun .def_150 () Bool (= .def_8 .x.71))
(define-fun .def_149 () Bool (= .def_12 .x.73))
(define-fun .def_151 () Bool (and .def_149 .def_150))
(define-fun .def_153 () Bool (and .def_151 .def_152))
(define-fun .def_155 () Bool (and .def_153 .def_154))
(define-fun .def_157 () Bool (and .def_155 .def_156))
(define-fun .def_159 () Bool (and .def_157 .def_158))
(define-fun .def_161 () Bool (and .def_159 .def_160))
(define-fun .def_144 () Bool (not .loc.5))
(define-fun .def_145 () Bool (and .loc.6 .def_144))
(define-fun .def_65 () Bool (= .x.85 4))
(define-fun .def_139 () Bool (not .def_65))
(define-fun .def_140 () Bool (or .def_40 .def_139))
(define-fun .def_71 () Int (+ .x.84 8))
(define-fun .def_85 () (Array Int Int) (select .def_14 .x.86))
(define-fun .def_105 () (Array Int Int) (store .def_85 .def_71 4))
(define-fun .def_106 () (Array Int (Array Int Int)) (store .def_14 .x.86 .def_105))
(define-fun .def_107 () Bool (= .x.74 .def_106))
(define-fun .def_102 () (Array Int Int) (store .def_52 .x.86 1))
(define-fun .def_103 () Bool (= .x.72 .def_102))
(define-fun .def_99 () (Array Int Int) (store .def_22 .x.86 12))
(define-fun .def_100 () Bool (= .x.78 .def_99))
(define-fun .def_94 () Int (+ .x.84 4))
(define-fun .def_95 () Int (select .def_85 .def_94))
(define-fun .def_96 () Bool (= .def_95 2))
(define-fun .def_90 () Int (select .def_85 .def_71))
(define-fun .def_91 () Bool (= .def_90 3))
(define-fun .def_86 () Int (select .def_85 .x.84))
(define-fun .def_87 () Bool (= .def_86 1))
(define-fun .def_81 () Int (select .def_52 .x.86))
(define-fun .def_82 () Bool (= .def_81 0))
(define-fun .def_78 () Bool (= .x.86 0))
(define-fun .def_79 () Bool (not .def_78))
(define-fun .def_76 () Bool (= .x.84 0))
(define-fun .def_72 () (Array Int Int) (select .x.74 .x.86))
(define-fun .def_73 () Int (select .def_72 .def_71))
(define-fun .def_74 () Bool (= .x.85 .def_73))
(define-fun .def_68 () Bool (<= .x.71 .x.86))
(define-fun .def_69 () Bool (not .def_68))
(define-fun .def_75 () Bool (and .def_69 .def_74))
(define-fun .def_77 () Bool (and .def_75 .def_76))
(define-fun .def_80 () Bool (and .def_77 .def_79))
(define-fun .def_83 () Bool (and .def_80 .def_82))
(define-fun .def_88 () Bool (and .def_83 .def_87))
(define-fun .def_92 () Bool (and .def_88 .def_91))
(define-fun .def_97 () Bool (and .def_92 .def_96))
(define-fun .def_101 () Bool (and .def_97 .def_100))
(define-fun .def_104 () Bool (and .def_101 .def_103))
(define-fun .def_108 () Bool (and .def_104 .def_107))
(define-fun .def_137 () Bool (or .def_40 .def_108))
(define-fun .def_51 () (Array Int Int) (store .def_10 0 0))
(define-fun .def_53 () Bool (= .def_51 .def_52))
(define-fun .def_49 () Bool (= .x.76 0))
(define-fun .def_48 () Bool (= .x.80 0))
(define-fun .def_50 () Bool (and .def_48 .def_49))
(define-fun .def_54 () Bool (and .def_50 .def_53))
(define-fun .def_55 () Bool (or .def_40 .def_54))
(define-fun .def_135 () Bool (and Q_4 .def_55))
(define-fun .def_46 () Bool (= .def_30 .x.82))
(define-fun .def_136 () Bool (and .def_46 .def_135))
(define-fun .def_138 () Bool (and .def_136 .def_137))
(define-fun .def_141 () Bool (and .def_138 .def_140))
(define-fun .def_142 () Bool (and .def_57 .def_141))
(define-fun .def_131 () Bool (= .x.83 0))
(define-fun .def_129 () (Array Int Int) (store .def_10 .def_38 0))
(define-fun .def_130 () Bool (= .x.72 .def_129))
(define-fun .def_132 () Bool (and .def_130 .def_131))
(define-fun .def_133 () Bool (or .def_40 .def_132))
(define-fun .def_127 () Bool (= .def_14 .x.74))
(define-fun .def_125 () Bool (= .def_18 .x.76))
(define-fun .def_123 () Bool (= .def_22 .x.78))
(define-fun .def_121 () Bool (= .def_26 .x.80))
(define-fun .def_117 () Bool (= .x.82 .x.83))
(define-fun .def_118 () Bool (or Q_4 .def_117))
(define-fun .def_119 () Bool (and .def_42 .def_118))
(define-fun .def_60 () Bool (= .def_40 Q_4))
(define-fun .def_120 () Bool (and .def_60 .def_119))
(define-fun .def_122 () Bool (and .def_120 .def_121))
(define-fun .def_124 () Bool (and .def_122 .def_123))
(define-fun .def_126 () Bool (and .def_124 .def_125))
(define-fun .def_128 () Bool (and .def_126 .def_127))
(define-fun .def_134 () Bool (and .def_128 .def_133))
(define-fun .def_143 () Bool (or .def_134 .def_142))
(define-fun .def_146 () Bool (and .def_143 .def_145))
(define-fun .def_111 () Bool (and .def_40 Q_4))
(define-fun .def_112 () Bool (and .def_55 .def_111))
(define-fun .def_113 () Bool (and .def_46 .def_112))
(define-fun .def_114 () Bool (and .def_57 .def_113))
(define-fun .def_115 () Bool (and .loc.5 .def_114))
(define-fun .def_62 () Bool (not .loc.6))
(define-fun .def_116 () Bool (and .def_62 .def_115))
(define-fun .def_147 () Bool (or .def_116 .def_146))
(define-fun .def_109 () Bool (or Q_4 .def_108))
(define-fun .def_66 () Bool (or Q_4 .def_65))
(define-fun .def_56 () Bool (and .def_46 .def_55))
(define-fun .def_58 () Bool (and .def_56 .def_57))
(define-fun .def_59 () Bool (and .loc.5 .def_58))
(define-fun .def_61 () Bool (and .def_59 .def_60))
(define-fun .def_63 () Bool (and .def_61 .def_62))
(define-fun .def_67 () Bool (and .def_63 .def_66))
(define-fun .def_110 () Bool (and .def_67 .def_109))
(define-fun .def_148 () Bool (or .def_110 .def_147))
(define-fun .def_162 () Bool (! (and .def_148 .def_161) :trans true))
(define-fun .def_176 () Bool (and .def_44 .def_57))
(define-fun .def_177 () Bool (and .def_40 .def_176))
(define-fun .def_178 () Bool (! (not .def_177) :invar-property 0))
(assert true)
